
Gurobi 11.0.0 (linux64) logging started Tue Sep 17 01:38:34 2024

Set parameter LogFile to value "gurobi.log"
Set parameter InfUnbdInfo to value 1
Gurobi Optimizer version 11.0.0 build v11.0.0rc2 (linux64 - "Ubuntu 22.04.4 LTS")

CPU model: AMD EPYC 7V13 64-Core Processor, instruction set [SSE2|AVX|AVX2]
Thread count: 128 physical cores, 128 logical processors, using up to 32 threads

Optimize a model with 50 rows, 211 columns and 121 nonzeros
Model fingerprint: 0xe2991398
Model has 175 quadratic constraints
Model has 3 general constraints
Variable types: 59 continuous, 152 integer (0 binary)
Coefficient statistics:
  Matrix range     [1e+00, 2e+05]
  QMatrix range    [1e+00, 2e+05]
  QLMatrix range   [1e+00, 2e+05]
  Objective range  [1e+00, 1e+00]
  Bounds range     [1e+00, 3e+10]
  RHS range        [1e+00, 2e+06]
  QRHS range       [1e+00, 2e+06]
Warning: Model contains large bounds
         Consider reformulating model or setting NumericFocus parameter
         to avoid numerical issues.
Using branch priorities (all 0).
Presolve added 89 rows and 56 columns
Presolve time: 0.01s
Presolved: 573 rows, 311 columns, 2548 nonzeros
Presolved model has 8 SOS constraint(s)
Presolved model has 83 bilinear constraint(s)
Warning: Model contains variables with very large bounds participating
         in product terms.
         Presolve was not able to compute smaller bounds for these variables.
         Consider bounding these variables or reformulating the model.


Solving non-convex MIQCP

Variable types: 153 continuous, 158 integer (47 binary)

Root relaxation: objective 8.230000e+02, 99 iterations, 0.00 seconds (0.00 work units)

    Nodes    |    Current Node    |     Objective Bounds      |     Work
 Expl Unexpl |  Obj  Depth IntInf | Incumbent    BestBd   Gap | It/Node Time

     0     0  823.00000    0   39          -  823.00000      -     -    0s
     0     0 1419.00000    0   64          - 1419.00000      -     -    0s
     0     0 1419.00000    0   65          - 1419.00000      -     -    0s
H    0     0                    1362293.9999 1419.00000   100%     -    0s
     0     0 1633.16640    0  109 1362294.00 1633.16640   100%     -    0s
     0     0 1633.98291    0  109 1362294.00 1633.98291   100%     -    0s
     0     0 1653.85668    0  108 1362294.00 1653.85668   100%     -    0s
     0     0 2275.28335    0  110 1362294.00 2275.28335   100%     -    0s
H    0     0                    1282753.9999 2393.62099   100%     -    0s
     0     0 2393.66255    0   70 1282754.00 2393.66255   100%     -    0s
     0     0 2405.01620    0  126 1282754.00 2405.01620   100%     -    0s
H    0     0                    803173.99992 2405.30790   100%     -    0s
H    0     0                    488092.00000 2405.30790   100%     -    0s
H    0     0                    487274.00000 2405.30790   100%     -    0s
     0     0 2405.30790    0  127 487274.000 2405.30790   100%     -    0s
     0     0 2419.96661    0  126 487274.000 2419.96661   100%     -    0s
     0     0 2448.38231    0   95 487274.000 2448.38231  99.5%     -    0s
     0     0 2448.38231    0  124 487274.000 2448.38231  99.5%     -    0s
     0     0 2464.26158    0  124 487274.000 2464.26158  99.5%     -    0s
H    0     0                    470790.58734 2464.26158  99.5%     -    0s
     0     0 2464.26158    0  126 470790.587 2464.26158  99.5%     -    0s
     0     0 2464.26158    0  126 470790.587 2464.26158  99.5%     -    0s
     0     0 2464.26158    0  127 470790.587 2464.26158  99.5%     -    0s
     0     0 2464.26158    0  127 470790.587 2464.26158  99.5%     -    0s
H    0     0                    390840.58734 2464.26158  99.4%     -    0s
     0     0 2464.26158    0  125 390840.587 2464.26158  99.4%     -    0s
     0     0 2464.26158    0  126 390840.587 2464.26158  99.4%     -    0s
     0     0 2464.26158    0  126 390840.587 2464.26158  99.4%     -    0s
     0     0 3173.09843    0  126 390840.587 3173.09843  99.2%     -    0s
     0     0 4356.54521    0  126 390840.587 4356.54521  98.9%     -    0s
     0     0 8638.17703    0  126 390840.587 8638.17703  97.8%     -    0s
     0     2 8638.17703    0  126 390840.587 8638.17703  97.8%     -    0s
H  109    99                    245386.71673 8638.17703  96.5%  15.5    0s
H  247   152                    199964.00000 8638.17703  95.7%  11.0    1s
H  332   195                    167960.83940 8638.17703  94.9%  10.7    1s
H  375   195                    111019.47337 8638.17703  92.2%  10.6    1s
*  650   282              20    84150.445037 8638.17703  89.7%   8.9    1s
* 1281   374              24    83740.445037 8638.17703  89.7%   7.2    1s
* 1803   430              37    83207.128977 8638.17703  89.6%   6.6    1s
H 1965   454                    82540.935252 8638.17703  89.5%   6.3    1s
* 2334   492              19    82522.248852 80822.5180  2.06%   6.1    1s
H 2804   552                    82261.243603 80848.0172  1.72%   6.0    1s
* 3830   493              26    82191.748652 80848.0172  1.63%   5.7    1s

Cutting planes:
  Learned: 4
  Cover: 1
  Implied bound: 46
  MIR: 49
  StrongCG: 1
  Flow cover: 2
  RLT: 48
  Relax-and-lift: 3

Explored 7166 nodes (38186 simplex iterations) in 3.18 seconds (0.36 work units)
Thread count was 32 (of 128 available processors)

Solution count 10: 82191.7 82261.2 82522.2 ... 199964

Optimal solution found (tolerance 1.00e-10)
Warning: max constraint violation (7.6333e-04) exceeds tolerance
Warning: max general constraint violation (7.6333e-04) exceeds tolerance
Best objective 8.219174865191e+04, best bound 8.219174865191e+04, gap 0.0000%
